100
32
29
21
6
21
15
6
11
9
14
12
1
1
4
25
12
18
2
1
18
4
1
17
2
2
2
1
3
19
18
2
17
2
4
17
1
4
2
2
6
1
17
2
9
2
1
1
19
2
5
5
2
1
1
2
1
2
10
5
17
1
3
1
3
1
2
18
1
1
2
3
1
1
2
5
2
16
6
1
4
1
2
2
1
1
4
3
3
3
2
1
3
1
2
2
2
1
2
1
1
2